745,207
300,25
387,257
584,336
639,364
1155,481
1001,569
977,452
639,364
745,207
504,59
628,379
254,623
342,652
727,548
611,503
736,577
756,880
1155,481
1221,406
1095,471
1001,569
711,406
998,842
681,886
491,596
415,599
342,652
628,433
761,366
981,406
491,596
